This is Ipopt version 3.14.16, running with linear solver MUMPS 5.7.3.

Number of nonzeros in equality constraint Jacobian...:        0
Number of nonzeros in inequality constraint Jacobian.:      988
Number of nonzeros in Lagrangian Hessian.............:        0

Total number of variables............................:       26
                     variables with only lower bounds:        0
                variables with lower and upper bounds:       26
                     variables with only upper bounds:        0
Total number of equality constraints.................:        0
Total number of inequality constraints...............:       38
        inequality constraints with only lower bounds:        0
   inequality constraints with lower and upper bounds:        0
        inequality constraints with only upper bounds:       38

iter    objective    inf_pr   inf_du lg(mu)  ||d||  lg(rg) alpha_du alpha_pr  ls
   0  6.8999999e-03 0.00e+00 9.96e-01   0.0 0.00e+00    -  0.00e+00 0.00e+00   0
   1  1.5938299e-02 0.00e+00 1.78e-01  -6.0 3.09e-02    -  9.56e-01 1.00e+00h  1
   2  1.3173599e-02 0.00e+00 1.26e-02  -3.0 1.74e-02    -  9.94e-01 1.00e+00h  1
   3  8.7600441e-03 0.00e+00 3.57e-02  -4.0 1.52e-02    -  9.97e-01 1.00e+00h  1
   4  6.8314507e-03 0.00e+00 7.97e-03  -5.6 1.47e-02    -  1.00e+00 1.00e+00h  1

Number of Iterations....: 4

                                   (scaled)                 (unscaled)
Objective...............:   6.8314506909854045e-03    6.8314506909854045e-03
Dual infeasibility......:   7.9697401589519292e-03    7.9697401589519292e-03
Constraint violation....:   0.0000000000000000e+00    0.0000000000000000e+00
Variable bound violation:   0.0000000000000000e+00    0.0000000000000000e+00
Complementarity.........:   8.6997656249550220e-05    8.6997656249550220e-05
Overall NLP error.......:   7.9697401589519292e-03    7.9697401589519292e-03


Number of objective function evaluations             = 5
Number of objective gradient evaluations             = 5
Number of equality constraint evaluations            = 0
Number of inequality constraint evaluations          = 5
Number of equality constraint Jacobian evaluations   = 0
Number of inequality constraint Jacobian evaluations = 5
Number of Lagrangian Hessian evaluations             = 0
Total seconds in IPOPT                               = 8.272

EXIT: Optimal Solution Found.
